NAME: kroB200
COMMENT: Local search tour for kroB200 (33892.74542530413)
TYPE: TOUR
DIMENSION: 200
TOUR_SECTION: 1 95 98 174 12 161 9 25 46 146 20 80 38 152 108 166 138 86 49 134 181 30 75 150 69 62 26 100 56 101 113 81 47 179 79 188 127 124 65 141 184 37 72 115 173 139 88 171 22 23 193 144 160 135 162 45 36 119 96 137 19 151 92 200 130 44 102 148 41 192 17 78 2 155 13 187 126 63 31 48 195 51 128 112 15 147 33 6 4 83 182 87 114 168 133 66 145 74 165 60 186 196 43 89 64 82 121 156 110 109 42 120 125 14 118 185 164 50 159 106 140 183 103 16 77 105 18 24 153 55 104 143 177 191 154 54 163 116 52 58 84 7 169 34 57 94 178 199 131 157 172 35 61 180 176 27 71 107 175 59 167 32 29 136 76 8 99 97 91 129 28 158 3 11 93 122 85 73 53 170 149 70 198 39 67 197 5 132 194 40 117 190 189 111 68 10 142 123 21 90 -1
EOF